7650070160700694200508,13,1,2,09,7,1,2,07,8,1,2,07,3,1,2,011,2,1,2,011,5,1,2,08,14,1,2,08,1,1,2,08,14,1,2,012,9,1,2,04,3,1,2,08,4,1,2,04,6,1,2,06,14,1,2,06,8,1,2,05,1,1,2,03,10,1,2,01,6,1,2,02,2,1,2,09,12,1,2,03,4,1,2,013,9,1,2,01,5,1,2,02,3,1,2,06,15,1,2,09,6,1,2,012,1,1,2,010,1,1,2,09,12,1,2,012,11,1,2,012,9,1,2,014,3,1,2,04,12,1,2,03,1,1,2,07,1,1,2,03,11,1,2,014,15,1,2,014,8,1,2,015,8,1,2,01,5,1,2,05,14,1,2,014,10,1,2,010,3,1,2,03,14,1,2,015,3,1,2,06,4,1,2,013,7,1,2,014,5,1,2,08,6,1,2,03,2,1,2,0